benchmarks_CP/INST_36x36/30/inst36x36_30_76.dzn
S=6;
start=[|
17,	-1,	36,	-1,	-1,	-1,	16,	-1,	-1,	-1,	-1,	-1,	-1,	-1,	-1,	-1,	-1,	-1,	33,	-1,	-1,	-1,	-1,	-1,	28,	-1,	-1,	6,	-1,	29,	-1,	31,	-1,	-1,	24,	-1|
-1,	-1,	1,	25,	-1,	-1,	-1,	-1,	-1,	-1,	-1,	-1,	-1,	31,	-1,	-1,	-1,	-1,	-1,	-1,	8,	-1,	-1,	-1,	-1,	-1,	-1,	-1,	-1,	15,	-1,	-1,	-1,	12,	-1,	-1|
-1,	32,	20,	7,	-1,	-1,	-1,	-1,	2,	17,	9,	15,	-1,	-1,	6,	-1,	4,	-1,	16,	30,	31,	-1,	28,	-1,	-1,	-1,	23,	5,	-1,	-1,	-1,	-1,	-1,	-1,	-1,	-1|
-1,	-1,	-1,	-1,	34,	-1,	28,	-1,	4,	12,	33,	-1,	19,	-1,	-1,	-1,	-1,	-1,	22,	-1,	-1,	26,	7,	-1,	20,	16,	-1,	-1,	21,	-1,	6,	-1,	9,	-1,	-1,	-1|
-1,	-1,	-1,	33,	-1,	-1,	-1,	30,	22,	23,	-1,	32,	11,	-1,	-1,	-1,	34,	-1,	-1,	-1,	-1,	-1,	9,	-1,	-1,	-1,	-1,	-1,	-1,	25,	36,	-1,	8,	20,	-1,	-1|
-1,	-1,	14,	-1,	-1,	-1,	-1,	-1,	-1,	-1,	19,	-1,	21,	-1,	-1,	-1,	-1,	-1,	-1,	-1,	15,	-1,	-1,	-1,	-1,	-1,	-1,	7,	-1,	-1,	-1,	-1,	-1,	5,	-1,	17|
-1,	-1,	-1,	-1,	-1,	26,	-1,	-1,	-1,	8,	-1,	-1,	16,	-1,	-1,	-1,	-1,	32,	28,	-1,	-1,	-1,	-1,	-1,	-1,	-1,	11,	-1,	-1,	-1,	-1,	-1,	-1,	-1,	-1,	9|
19,	-1,	16,	-1,	4,	-1,	-1,	32,	-1,	28,	31,	-1,	-1,	-1,	-1,	2,	-1,	-1,	-1,	5,	-1,	-1,	-1,	9,	12,	-1,	-1,	-1,	34,	-1,	-1,	-1,	-1,	-1,	27,	-1|
-1,	27,	11,	-1,	-1,	-1,	-1,	24,	-1,	-1,	-1,	36,	22,	-1,	21,	-1,	-1,	-1,	-1,	-1,	-1,	-1,	-1,	34,	9,	-1,	-1,	-1,	8,	7,	18,	-1,	33,	4,	-1,	-1|
-1,	-1,	-1,	-1,	36,	9,	-1,	34,	-1,	-1,	-1,	-1,	10,	-1,	-1,	8,	14,	27,	-1,	17,	-1,	19,	22,	3,	-1,	-1,	-1,	-1,	-1,	18,	-1,	-1,	-1,	16,	28,	-1|
-1,	3,	-1,	-1,	-1,	-1,	-1,	15,	-1,	18,	27,	-1,	-1,	34,	-1,	28,	-1,	7,	-1,	4,	-1,	32,	-1,	-1,	10,	-1,	-1,	-1,	-1,	-1,	11,	-1,	-1,	31,	-1,	-1|
-1,	18,	-1,	10,	-1,	-1,	-1,	-1,	-1,	-1,	11,	1,	4,	-1,	-1,	-1,	26,	-1,	-1,	24,	-1,	-1,	15,	-1,	-1,	-1,	-1,	-1,	13,	19,	-1,	-1,	-1,	-1,	-1,	-1|
-1,	-1,	-1,	-1,	35,	31,	21,	17,	-1,	-1,	-1,	-1,	-1,	-1,	-1,	-1,	-1,	-1,	-1,	-1,	-1,	15,	4,	28,	-1,	26,	-1,	-1,	7,	-1,	19,	-1,	32,	14,	2,	36|
-1,	14,	-1,	-1,	-1,	17,	-1,	3,	-1,	-1,	-1,	20,	-1,	-1,	-1,	-1,	-1,	30,	9,	-1,	-1,	11,	-1,	-1,	-1,	31,	-1,	-1,	22,	-1,	-1,	-1,	-1,	13,	-1,	-1|
-1,	-1,	32,	-1,	-1,	-1,	7,	35,	-1,	-1,	-1,	-1,	-1,	-1,	-1,	-1,	20,	-1,	-1,	-1,	2,	33,	-1,	-1,	-1,	-1,	-1,	-1,	10,	-1,	-1,	-1,	-1,	28,	-1,	30|
-1,	-1,	-1,	-1,	29,	-1,	-1,	-1,	-1,	-1,	16,	-1,	-1,	1,	-1,	11,	18,	23,	5,	-1,	13,	7,	-1,	-1,	-1,	-1,	-1,	36,	-1,	-1,	12,	-1,	-1,	-1,	-1,	-1|
-1,	-1,	-1,	-1,	-1,	-1,	-1,	-1,	-1,	2,	-1,	-1,	32,	-1,	-1,	-1,	28,	9,	-1,	23,	-1,	-1,	-1,	-1,	-1,	-1,	25,	-1,	-1,	-1,	-1,	-1,	18,	-1,	-1,	-1|
-1,	22,	-1,	-1,	8,	-1,	-1,	28,	-1,	-1,	-1,	11,	-1,	-1,	-1,	16,	24,	29,	-1,	-1,	-1,	31,	-1,	-1,	-1,	-1,	-1,	-1,	-1,	-1,	25,	-1,	-1,	-1,	-1,	7|
34,	-1,	-1,	-1,	16,	-1,	-1,	36,	-1,	-1,	-1,	-1,	33,	-1,	5,	32,	-1,	-1,	-1,	-1,	26,	-1,	-1,	-1,	-1,	-1,	-1,	19,	18,	6,	-1,	7,	28,	-1,	-1,	-1|
-1,	2,	23,	-1,	30,	-1,	25,	-1,	-1,	-1,	-1,	-1,	-1,	-1,	-1,	20,	-1,	-1,	-1,	-1,	34,	18,	-1,	5,	-1,	-1,	10,	-1,	-1,	-1,	17,	-1,	-1,	-1,	-1,	-1|
-1,	15,	9,	17,	-1,	-1,	-1,	27,	-1,	-1,	-1,	-1,	6,	24,	25,	-1,	-1,	-1,	-1,	-1,	-1,	-1,	13,	-1,	-1,	22,	-1,	-1,	2,	-1,	-1,	4,	-1,	-1,	-1,	31|
-1,	7,	-1,	24,	-1,	-1,	-1,	-1,	-1,	-1,	-1,	-1,	-1,	-1,	-1,	-1,	-1,	-1,	-1,	8,	-1,	-1,	-1,	-1,	-1,	-1,	20,	-1,	9,	-1,	-1,	-1,	6,	-1,	-1,	11|
-1,	-1,	-1,	-1,	20,	22,	32,	-1,	-1,	-1,	21,	-1,	-1,	-1,	-1,	-1,	-1,	-1,	-1,	25,	33,	-1,	-1,	-1,	11,	-1,	-1,	-1,	-1,	-1,	-1,	-1,	-1,	19,	23,	-1|
11,	-1,	-1,	29,	-1,	-1,	-1,	-1,	-1,	-1,	14,	-1,	-1,	-1,	1,	23,	16,	31,	-1,	-1,	-1,	-1,	-1,	-1,	-1,	24,	-1,	21,	25,	-1,	-1,	-1,	-1,	-1,	-1,	-1|
-1,	-1,	-1,	-1,	-1,	33,	-1,	-1,	-1,	27,	25,	4,	-1,	5,	18,	30,	-1,	10,	7,	12,	-1,	34,	11,	6,	2,	9,	-1,	-1,	29,	32,	-1,	19,	13,	15,	-1,	-1|
-1,	-1,	-1,	-1,	-1,	10,	-1,	5,	-1,	34,	-1,	33,	-1,	22,	-1,	-1,	32,	19,	-1,	-1,	-1,	-1,	-1,	-1,	-1,	-1,	35,	-1,	-1,	17,	4,	-1,	-1,	23,	30,	14|
35,	12,	-1,	-1,	-1,	-1,	-1,	-1,	29,	-1,	24,	-1,	-1,	28,	-1,	-1,	8,	-1,	-1,	-1,	23,	-1,	-1,	-1,	-1,	25,	19,	10,	-1,	-1,	-1,	-1,	20,	-1,	-1,	-1|
-1,	-1,	18,	-1,	-1,	20,	-1,	-1,	-1,	-1,	2,	-1,	-1,	26,	-1,	-1,	-1,	-1,	-1,	27,	-1,	3,	-1,	-1,	-1,	-1,	-1,	28,	-1,	-1,	8,	-1,	-1,	33,	-1,	-1|
-1,	5,	-1,	-1,	-1,	-1,	-1,	-1,	-1,	35,	28,	-1,	-1,	-1,	36,	-1,	-1,	-1,	-1,	-1,	24,	-1,	17,	-1,	8,	-1,	-1,	11,	-1,	-1,	-1,	-1,	-1,	-1,	-1,	-1|
-1,	28,	34,	-1,	-1,	-1,	19,	-1,	36,	14,	22,	8,	-1,	12,	15,	-1,	11,	20,	-1,	-1,	-1,	-1,	-1,	18,	27,	-1,	-1,	30,	-1,	21,	-1,	-1,	2,	-1,	-1,	-1|
-1,	-1,	-1,	-1,	1,	-1,	35,	25,	31,	15,	6,	-1,	-1,	-1,	-1,	-1,	36,	16,	12,	11,	-1,	-1,	-1,	-1,	26,	7,	-1,	-1,	-1,	-1,	24,	-1,	-1,	-1,	14,	-1|
5,	17,	-1,	-1,	-1,	8,	-1,	4,	-1,	-1,	-1,	-1,	-1,	-1,	-1,	-1,	-1,	-1,	-1,	-1,	9,	-1,	1,	-1,	-1,	-1,	-1,	-1,	-1,	-1,	-1,	-1,	35,	-1,	-1,	-1|
-1,	-1,	-1,	-1,	-1,	-1,	-1,	-1,	-1,	20,	-1,	22,	-1,	-1,	-1,	-1,	25,	-1,	27,	-1,	-1,	17,	-1,	-1,	-1,	-1,	-1,	-1,	-1,	24,	26,	-1,	-1,	-1,	33,	-1|
-1,	-1,	-1,	-1,	-1,	-1,	-1,	33,	5,	-1,	-1,	-1,	-1,	-1,	-1,	34,	-1,	-1,	-1,	-1,	3,	-1,	-1,	-1,	15,	-1,	-1,	-1,	14,	10,	-1,	8,	27,	-1,	-1,	-1|
-1,	-1,	-1,	-1,	10,	32,	34,	-1,	-1,	-1,	30,	-1,	-1,	-1,	-1,	-1,	-1,	-1,	-1,	-1,	19,	-1,	-1,	-1,	-1,	-1,	-1,	-1,	-1,	4,	5,	-1,	1,	-1,	22,	-1|
-1,	-1,	-1,	-1,	-1,	-1,	-1,	21,	17,	-1,	1,	-1,	-1,	-1,	35,	-1,	-1,	8,	-1,	-1,	-1,	30,	-1,	-1,	19,	-1,	2,	-1,	-1,	-1,	-1,	-1,	31,	18,	7,	13|];
